data;

param w := 27;
param n := 21;
param min_h := 27;
param max_h := 36;

set BLOCKS := 1 2 3 4 5 6 7 8 9 10 11 12 13 14 15 16 17 18 19 20 21 ;

param:	width	height :=
	1	4	20
	2	4	19
	3	3	21
	4	3	20
	5	3	19
	6	4	14
	7	3	12
	8	3	11
	9	4	8
	10	3	10
	11	4	7
	12	3	9
	13	4	6
	14	3	8
	15	3	7
	16	3	6
	17	4	4
	18	3	5
	19	4	3
	20	3	4
	21	3	3;